TCS_Benchmarks/redos_fix/regexlib1_output_distinct_1091_1090_1_0.smt2
(set-logic QF_S)
(declare-const x String)
(assert (str.in.re x (re.inter (re.+  (re.union  (str.to.re "\u{5c}") (re.union  (str.to.re "\u{5d}") (re.union  (str.to.re "\u{24}") (re.union  (str.to.re "\u{28}") (re.union (re.range "\u{41}" "\u{5a}") (re.union  (str.to.re "\u{2a}") (re.union (re.range "\u{61}" "\u{7a}") (re.union  (str.to.re "\u{2b}") (re.union  (str.to.re "\u{2d}") (re.union  (str.to.re "\u{2e}") (re.union  (str.to.re "\u{2f}") (re.union (re.range "\u{30}" "\u{39}") (re.union  (str.to.re "\u{5f}") (re.union  (str.to.re "\u{7c}") (re.union  (str.to.re "\u{21}") (re.union  (str.to.re "\u{3f}") (re.union  (str.to.re "\u{23}") (re.union  (str.to.re "\u{25}") (re.union  (str.to.re "\u{26}") (re.union  (str.to.re "\u{27}") (re.union  (str.to.re "\u{3a}") (re.union  (str.to.re "\u{3b}") (re.union  (str.to.re "\u{3d}") (re.union  (str.to.re "\u{7e}")  (str.to.re "\u{5b}"))))))))))))))))))))))))) )  (re.++ (re.+  (re.union  (str.to.re "\u{5c}") (re.union  (str.to.re "\u{5d}") (re.union  (str.to.re "\u{24}") (re.union  (str.to.re "\u{28}") (re.union (re.range "\u{41}" "\u{5a}") (re.union  (str.to.re "\u{2a}") (re.union (re.range "\u{61}" "\u{7a}") (re.union  (str.to.re "\u{2b}") (re.union  (str.to.re "\u{2d}") (re.union  (str.to.re "\u{2e}") (re.union  (str.to.re "\u{2f}") (re.union (re.range "\u{30}" "\u{39}") (re.union  (str.to.re "\u{5f}") (re.union  (str.to.re "\u{7c}") (re.union  (str.to.re "\u{21}") (re.union  (str.to.re "\u{3f}") (re.union  (str.to.re "\u{23}") (re.union  (str.to.re "\u{25}") (re.union  (str.to.re "\u{26}") (re.union  (str.to.re "\u{27}") (re.union  (str.to.re "\u{3a}") (re.union  (str.to.re "\u{3b}") (re.union  (str.to.re "\u{3d}") (re.union  (str.to.re "\u{7e}")  (str.to.re "\u{5b}"))))))))))))))))))))))))) ) (re.++  (re.union  (str.to.re "\u{2e}") (re.union  (str.to.re "\u{61}") (re.union  (str.to.re "\u{62}") (re.union  (str.to.re "\u{63}") (re.union  (str.to.re "\u{64}") (re.union  (str.to.re "\u{65}") (re.union  (str.to.re "\u{66}") (re.union  (str.to.re "\u{67}") (re.union  (str.to.re "\u{68}") (re.union  (str.to.re "\u{69}") (re.union  (str.to.re "\u{6a}") (re.union  (str.to.re "\u{6b}") (re.union  (str.to.re "\u{6c}") (re.union  (str.to.re "\u{6d}") (re.union  (str.to.re "\u{6e}") (re.union  (str.to.re "\u{2e}") (re.union  (str.to.re "\u{6f}") (re.union  (str.to.re "\u{70}") (re.union  (str.to.re "\u{71}") (re.union  (str.to.re "\u{72}") (re.union  (str.to.re "\u{73}") (re.union  (str.to.re "\u{74}") (re.union  (str.to.re "\u{75}") (re.union  (str.to.re "\u{76}") (re.union  (str.to.re "\u{77}") (re.union  (str.to.re "\u{78}") (re.union  (str.to.re "\u{79}") (re.union  (str.to.re "\u{7a}")  (str.to.re "\u{7c}"))))))))))))))))))))))))))))) (re.*  (re.union  (str.to.re "\u{5c}") (re.union  (str.to.re "\u{5d}") (re.union  (str.to.re "\u{24}") (re.union  (str.to.re "\u{28}") (re.union (re.range "\u{41}" "\u{5a}") (re.union  (str.to.re "\u{2a}") (re.union (re.range "\u{61}" "\u{7a}") (re.union  (str.to.re "\u{2b}") (re.union  (str.to.re "\u{2d}") (re.union  (str.to.re "\u{2e}") (re.union  (str.to.re "\u{2f}") (re.union (re.range "\u{30}" "\u{39}") (re.union  (str.to.re "\u{5f}") (re.union  (str.to.re "\u{7c}") (re.union  (str.to.re "\u{21}") (re.union  (str.to.re "\u{3f}") (re.union  (str.to.re "\u{23}") (re.union  (str.to.re "\u{25}") (re.union  (str.to.re "\u{26}") (re.union  (str.to.re "\u{27}") (re.union  (str.to.re "\u{3a}") (re.union  (str.to.re "\u{3b}") (re.union  (str.to.re "\u{3d}") (re.union  (str.to.re "\u{7e}")  (str.to.re "\u{5b}"))))))))))))))))))))))))) ))) (re.*  (re.union  (str.to.re "\u{5c}") (re.union  (str.to.re "\u{5d}") (re.union  (str.to.re "\u{24}") (re.union  (str.to.re "\u{28}") (re.union (re.range "\u{41}" "\u{5a}") (re.union  (str.to.re "\u{2a}") (re.union (re.range "\u{61}" "\u{7a}") (re.union  (str.to.re "\u{2b}") (re.union  (str.to.re "\u{2d}") (re.union  (str.to.re "\u{2e}") (re.union  (str.to.re "\u{2f}") (re.union (re.range "\u{30}" "\u{39}") (re.union  (str.to.re "\u{5f}") (re.union  (str.to.re "\u{7c}") (re.union  (str.to.re "\u{21}") (re.union  (str.to.re "\u{3f}") (re.union  (str.to.re "\u{23}") (re.union  (str.to.re "\u{25}") (re.union  (str.to.re "\u{26}") (re.union  (str.to.re "\u{27}") (re.union  (str.to.re "\u{3a}") (re.union  (str.to.re "\u{3b}") (re.union  (str.to.re "\u{3d}") (re.union  (str.to.re "\u{7e}")  (str.to.re "\u{5b}"))))))))))))))))))))))))) ) )))
(check-sat)
(get-model)