TCS_Benchmarks/redos_fix/regexlib1_output_distinct_1091_1090_1_0.txt
([\\\]\$\(A-Z\*a-z\+\-\.\/0-9_\|!\?#%&':;=~\[])+
(([\\\]\$\(A-Z\*a-z\+\-\.\/0-9_\|!\?#%&':;=~\[])+)([\.abcdefghijklmn.opqrstuvwxyz|])(([\\\]\$\(A-Z\*a-z\+\-\.\/0-9_\|!\?#%&':;=~\[])*)
([\\\]\$\(A-Z\*a-z\+\-\.\/0-9_\|!\?#%&':;=~\[])*